10J3M/DAT/10J3MULX-12.dat
10 3
9.7836 3.1279
49.835 7.0594
17.2217 4.1499
46.671 6.8316
14.8757 3.8569
39.2555 6.2654
49.8444 7.0601
13.0724 3.6156
48.2633 6.9472
1.3907 1.1793
16.6978