10J3M/SOL/10J3MULX-12.sol
solution status: optimal solution found
objective value:                     96.7377666666666
x#1#2                                               1 	(obj:0)
x#2#2                                               1 	(obj:0)
x#3#1                                0.20800355771278 	(obj:0)
x#3#3                                0.79199644228722 	(obj:0)
x#4#1                               0.836159323708609 	(obj:0)
x#4#3                               0.163840676291391 	(obj:0)
x#5#1                                               1 	(obj:0)
x#6#1                                               1 	(obj:0)
x#7#2                               0.676594808718334 	(obj:0)
x#7#3                               0.323405191281666 	(obj:0)
x#8#2                               0.153300417902337 	(obj:0)
x#8#3                               0.846699582097663 	(obj:0)
x#9#3                                               1 	(obj:0)
x#10#2                                              1 	(obj:0)
z                                    96.7377666666666 	(obj:1)
